boundary p p p
units metal
atom_style atomic
lattice fcc 3.615
region box block 0 15 0 15 0 15
create_box 1 box
create_atoms 1 box
mass * 63.55

pair_style eam/alloy
pair_coeff * * cu.eam Cu

timestep 0.002
thermo 1
fix nve all nve 

thermo 1
minimize 1e-4 100 100
run 100
