# 3d metal shear simulation

units		metal
boundary	p p p

atom_style	atomic
lattice		fcc 3.615
region		box block 0 5 0 5 0 5
create_box	1 box

lattice		fcc 3.615 
create_atoms	1 box

pair_style	eam/alloy
pair_coeff	* * EAM1.eam Cu
#pair_coeff * * /home/gerolf/src/lammps/repo/potentials/nialhjea.eam.alloy Ni Ni Ni Al

fix		1 all nve
run		1000
